NAME : traveling-santa-2018-prime-paths.31414.tour
COMMENT : Length = 31414
COMMENT : Found by LKH [Keld Helsgaun] Sun Jun 12 19:59:46 2022
TYPE : TOUR
DIMENSION : 100
TOUR_SECTION
1
38
29
71
16
30
25
42
83
99
53
5
18
85
88
12
82
21
77
97
84
27
95
66
43
100
46
37
32
61
49
98
47
60
7
79
62
23
51
80
11
9
4
39
78
50
28
33
90
19
91
31
96
36
74
54
55
41
68
34
35
63
20
64
76
8
14
89
57
92
70
65
81
48
93
86
13
75
44
87
67
15
69
2
72
58
17
94
45
10
52
22
73
26
40
24
6
3
56
59
-1
EOF
